(set-option :produce-unsat-cores true) ; enable generation of unsat cores
(set-option :produce-models true) ; enable model generation
(set-logic ALL)
(declare-sort var1519 0)
(declare-sort var188 0)
(declare-sort void 0)
(declare-sort Iterator 0)
(declare-sort ClassObject 0)
(declare-fun info/-778566539 (var1519) (Array Int Int))
(declare-fun var188_readU16bit/-514445618 ((Array Int Int) Int) Int)
(define-fun cast-from-Int-to-Int ((arg Int)) Int arg)
(declare-fun typeArgumentTarget/1059638426 (var1519 Int Int Int Int) void)
(declare-const null-var1519 var1519)
(declare-const null-Int Int)
(declare-const var532 var1519) ; Statement: r0 := @this: org.apache.ibatis.javassist.bytecode.TypeAnnotationsAttribute$SubWalker 
(assert (not (= var532 null-var1519)))
(declare-const var3493 Int) ; Statement: i1 := @parameter0: int 
(assert (not (= var3493 null-Int)))
(declare-const var676 Int) ; Statement: i0 := @parameter1: int 
(assert (not (= var676 null-Int)))
 ; Statement: tableswitch(i0) {     case 0: goto $r11 = r0.<org.apache.ibatis.javassist.bytecode.TypeAnnotationsAttribute$SubWalker: byte[] info>;     case 1: goto $r11 = r0.<org.apache.ibatis.javassist.bytecode.TypeAnnotationsAttribute$SubWalker: byte[] info>;     case 2: goto $r18 = new java.lang.RuntimeException;     case 3: goto $r18 = new java.lang.RuntimeException;     case 4: goto $r18 = new java.lang.RuntimeException;     case 5: goto $r18 = new java.lang.RuntimeException;     case 6: goto $r18 = new java.lang.RuntimeException;     case 7: goto $r18 = new java.lang.RuntimeException;     case 8: goto $r18 = new java.lang.RuntimeException;     case 9: goto $r18 = new java.lang.RuntimeException;     case 10: goto $r18 = new java.lang.RuntimeException;     case 11: goto $r18 = new java.lang.RuntimeException;     case 12: goto $r18 = new java.lang.RuntimeException;     case 13: goto $r18 = new java.lang.RuntimeException;     case 14: goto $r18 = new java.lang.RuntimeException;     case 15: goto $r18 = new java.lang.RuntimeException;     case 16: goto $r10 = r0.<org.apache.ibatis.javassist.bytecode.TypeAnnotationsAttribute$SubWalker: byte[] info>;     case 17: goto $r8 = r0.<org.apache.ibatis.javassist.bytecode.TypeAnnotationsAttribute$SubWalker: byte[] info>;     case 18: goto $r8 = r0.<org.apache.ibatis.javassist.bytecode.TypeAnnotationsAttribute$SubWalker: byte[] info>;     case 19: goto virtualinvoke r0.<org.apache.ibatis.javassist.bytecode.TypeAnnotationsAttribute$SubWalker: void emptyTarget(int,int)>(i1, i0);     case 20: goto virtualinvoke r0.<org.apache.ibatis.javassist.bytecode.TypeAnnotationsAttribute$SubWalker: void emptyTarget(int,int)>(i1, i0);     case 21: goto virtualinvoke r0.<org.apache.ibatis.javassist.bytecode.TypeAnnotationsAttribute$SubWalker: void emptyTarget(int,int)>(i1, i0);     case 22: goto $r7 = r0.<org.apache.ibatis.javassist.bytecode.TypeAnnotationsAttribute$SubWalker: byte[] info>;     case 23: goto $r6 = r0.<org.apache.ibatis.javassist.bytecode.TypeAnnotationsAttribute$SubWalker: byte[] info>;     case 24: goto $r18 = new java.lang.RuntimeException;     case 25: goto $r18 = new java.lang.RuntimeException;     case 26: goto $r18 = new java.lang.RuntimeException;     case 27: goto $r18 = new java.lang.RuntimeException;     case 28: goto $r18 = new java.lang.RuntimeException;     case 29: goto $r18 = new java.lang.RuntimeException;     case 30: goto $r18 = new java.lang.RuntimeException;     case 31: goto $r18 = new java.lang.RuntimeException;     case 32: goto $r18 = new java.lang.RuntimeException;     case 33: goto $r18 = new java.lang.RuntimeException;     case 34: goto $r18 = new java.lang.RuntimeException;     case 35: goto $r18 = new java.lang.RuntimeException;     case 36: goto $r18 = new java.lang.RuntimeException;     case 37: goto $r18 = new java.lang.RuntimeException;     case 38: goto $r18 = new java.lang.RuntimeException;     case 39: goto $r18 = new java.lang.RuntimeException;     case 40: goto $r18 = new java.lang.RuntimeException;     case 41: goto $r18 = new java.lang.RuntimeException;     case 42: goto $r18 = new java.lang.RuntimeException;     case 43: goto $r18 = new java.lang.RuntimeException;     case 44: goto $r18 = new java.lang.RuntimeException;     case 45: goto $r18 = new java.lang.RuntimeException;     case 46: goto $r18 = new java.lang.RuntimeException;     case 47: goto $r18 = new java.lang.RuntimeException;     case 48: goto $r18 = new java.lang.RuntimeException;     case 49: goto $r18 = new java.lang.RuntimeException;     case 50: goto $r18 = new java.lang.RuntimeException;     case 51: goto $r18 = new java.lang.RuntimeException;     case 52: goto $r18 = new java.lang.RuntimeException;     case 53: goto $r18 = new java.lang.RuntimeException;     case 54: goto $r18 = new java.lang.RuntimeException;     case 55: goto $r18 = new java.lang.RuntimeException;     case 56: goto $r18 = new java.lang.RuntimeException;     case 57: goto $r18 = new java.lang.RuntimeException;     case 58: goto $r18 = new java.lang.RuntimeException;     case 59: goto $r18 = new java.lang.RuntimeException;     case 60: goto $r18 = new java.lang.RuntimeException;     case 61: goto $r18 = new java.lang.RuntimeException;     case 62: goto $r18 = new java.lang.RuntimeException;     case 63: goto $r18 = new java.lang.RuntimeException;     case 64: goto $r5 = r0.<org.apache.ibatis.javassist.bytecode.TypeAnnotationsAttribute$SubWalker: byte[] info>;     case 65: goto $r5 = r0.<org.apache.ibatis.javassist.bytecode.TypeAnnotationsAttribute$SubWalker: byte[] info>;     case 66: goto $r4 = r0.<org.apache.ibatis.javassist.bytecode.TypeAnnotationsAttribute$SubWalker: byte[] info>;     case 67: goto $r3 = r0.<org.apache.ibatis.javassist.bytecode.TypeAnnotationsAttribute$SubWalker: byte[] info>;     case 68: goto $r3 = r0.<org.apache.ibatis.javassist.bytecode.TypeAnnotationsAttribute$SubWalker: byte[] info>;     case 69: goto $r3 = r0.<org.apache.ibatis.javassist.bytecode.TypeAnnotationsAttribute$SubWalker: byte[] info>;     case 70: goto $r3 = r0.<org.apache.ibatis.javassist.bytecode.TypeAnnotationsAttribute$SubWalker: byte[] info>;     case 71: goto $r1 = r0.<org.apache.ibatis.javassist.bytecode.TypeAnnotationsAttribute$SubWalker: byte[] info>;     case 72: goto $r1 = r0.<org.apache.ibatis.javassist.bytecode.TypeAnnotationsAttribute$SubWalker: byte[] info>;     case 73: goto $r1 = r0.<org.apache.ibatis.javassist.bytecode.TypeAnnotationsAttribute$SubWalker: byte[] info>;     case 74: goto $r1 = r0.<org.apache.ibatis.javassist.bytecode.TypeAnnotationsAttribute$SubWalker: byte[] info>;     case 75: goto $r1 = r0.<org.apache.ibatis.javassist.bytecode.TypeAnnotationsAttribute$SubWalker: byte[] info>;     default: goto $r18 = new java.lang.RuntimeException; } 
(assert (and (= var676 71) (and (not (= var676 70)) (and (not (= var676 69)) (and (not (= var676 68)) (and (not (= var676 67)) (and (not (= var676 66)) (and (not (= var676 65)) (and (not (= var676 64)) (and (not (= var676 63)) (and (not (= var676 62)) (and (not (= var676 61)) (and (not (= var676 60)) (and (not (= var676 59)) (and (not (= var676 58)) (and (not (= var676 57)) (and (not (= var676 56)) (and (not (= var676 55)) (and (not (= var676 54)) (and (not (= var676 53)) (and (not (= var676 52)) (and (not (= var676 51)) (and (not (= var676 50)) (and (not (= var676 49)) (and (not (= var676 48)) (and (not (= var676 47)) (and (not (= var676 46)) (and (not (= var676 45)) (and (not (= var676 44)) (and (not (= var676 43)) (and (not (= var676 42)) (and (not (= var676 41)) (and (not (= var676 40)) (and (not (= var676 39)) (and (not (= var676 38)) (and (not (= var676 37)) (and (not (= var676 36)) (and (not (= var676 35)) (and (not (= var676 34)) (and (not (= var676 33)) (and (not (= var676 32)) (and (not (= var676 31)) (and (not (= var676 30)) (and (not (= var676 29)) (and (not (= var676 28)) (and (not (= var676 27)) (and (not (= var676 26)) (and (not (= var676 25)) (and (not (= var676 24)) (and (not (= var676 23)) (and (not (= var676 22)) (and (not (= var676 21)) (and (not (= var676 20)) (and (not (= var676 19)) (and (not (= var676 18)) (and (not (= var676 17)) (and (not (= var676 16)) (and (not (= var676 15)) (and (not (= var676 14)) (and (not (= var676 13)) (and (not (= var676 12)) (and (not (= var676 11)) (and (not (= var676 10)) (and (not (= var676 9)) (and (not (= var676 8)) (and (not (= var676 7)) (and (not (= var676 6)) (and (not (= var676 5)) (and (not (= var676 4)) (and (not (= var676 3)) (and (not (= var676 2)) (and (not (= var676 1)) (and (not (= var676 0)) true))))))))))))))))))))))))))))))))))))))))))))))))))))))))))))))))))))))))) ; Intersect: Cond: i0 == 71  and Intersect: Negate: Cond: i0 == 70   and Intersect: Negate: Cond: i0 == 69   and Intersect: Negate: Cond: i0 == 68   and Intersect: Negate: Cond: i0 == 67   and Intersect: Negate: Cond: i0 == 66   and Intersect: Negate: Cond: i0 == 65   and Intersect: Negate: Cond: i0 == 64   and Intersect: Negate: Cond: i0 == 63   and Intersect: Negate: Cond: i0 == 62   and Intersect: Negate: Cond: i0 == 61   and Intersect: Negate: Cond: i0 == 60   and Intersect: Negate: Cond: i0 == 59   and Intersect: Negate: Cond: i0 == 58   and Intersect: Negate: Cond: i0 == 57   and Intersect: Negate: Cond: i0 == 56   and Intersect: Negate: Cond: i0 == 55   and Intersect: Negate: Cond: i0 == 54   and Intersect: Negate: Cond: i0 == 53   and Intersect: Negate: Cond: i0 == 52   and Intersect: Negate: Cond: i0 == 51   and Intersect: Negate: Cond: i0 == 50   and Intersect: Negate: Cond: i0 == 49   and Intersect: Negate: Cond: i0 == 48   and Intersect: Negate: Cond: i0 == 47   and Intersect: Negate: Cond: i0 == 46   and Intersect: Negate: Cond: i0 == 45   and Intersect: Negate: Cond: i0 == 44   and Intersect: Negate: Cond: i0 == 43   and Intersect: Negate: Cond: i0 == 42   and Intersect: Negate: Cond: i0 == 41   and Intersect: Negate: Cond: i0 == 40   and Intersect: Negate: Cond: i0 == 39   and Intersect: Negate: Cond: i0 == 38   and Intersect: Negate: Cond: i0 == 37   and Intersect: Negate: Cond: i0 == 36   and Intersect: Negate: Cond: i0 == 35   and Intersect: Negate: Cond: i0 == 34   and Intersect: Negate: Cond: i0 == 33   and Intersect: Negate: Cond: i0 == 32   and Intersect: Negate: Cond: i0 == 31   and Intersect: Negate: Cond: i0 == 30   and Intersect: Negate: Cond: i0 == 29   and Intersect: Negate: Cond: i0 == 28   and Intersect: Negate: Cond: i0 == 27   and Intersect: Negate: Cond: i0 == 26   and Intersect: Negate: Cond: i0 == 25   and Intersect: Negate: Cond: i0 == 24   and Intersect: Negate: Cond: i0 == 23   and Intersect: Negate: Cond: i0 == 22   and Intersect: Negate: Cond: i0 == 21   and Intersect: Negate: Cond: i0 == 20   and Intersect: Negate: Cond: i0 == 19   and Intersect: Negate: Cond: i0 == 18   and Intersect: Negate: Cond: i0 == 17   and Intersect: Negate: Cond: i0 == 16   and Intersect: Negate: Cond: i0 == 15   and Intersect: Negate: Cond: i0 == 14   and Intersect: Negate: Cond: i0 == 13   and Intersect: Negate: Cond: i0 == 12   and Intersect: Negate: Cond: i0 == 11   and Intersect: Negate: Cond: i0 == 10   and Intersect: Negate: Cond: i0 == 9   and Intersect: Negate: Cond: i0 == 8   and Intersect: Negate: Cond: i0 == 7   and Intersect: Negate: Cond: i0 == 6   and Intersect: Negate: Cond: i0 == 5   and Intersect: Negate: Cond: i0 == 4   and Intersect: Negate: Cond: i0 == 3   and Intersect: Negate: Cond: i0 == 2   and Intersect: Negate: Cond: i0 == 1   and Intersect: Negate: Cond: i0 == 0   and Non Conditional                                                                        
(define-const var3384 (Array Int Int) (info/-778566539 var532)) ; Statement: $r1 = r0.<org.apache.ibatis.javassist.bytecode.TypeAnnotationsAttribute$SubWalker: byte[] info> 
(define-const var942 Int (var188_readU16bit/-514445618 var3384 var3493)) ; Statement: i28 = staticinvoke <org.apache.ibatis.javassist.bytecode.ByteArray: int readU16bit(byte[],int)>($r1, i1) 
(define-const var3595 (Array Int Int) (info/-778566539 var532)) ; Statement: $r2 = r0.<org.apache.ibatis.javassist.bytecode.TypeAnnotationsAttribute$SubWalker: byte[] info> 
(define-const var3843 Int (+ var3493 2)) ; Statement: $i2 = i1 + 2 
(define-const var2690 Int (select var3595 var3843)) ; Statement: $b3 = $r2[$i2] 
(define-const var3390 Int (cast-from-Int-to-Int var2690)) ; Statement: $s38 = (short) $b3 
(define-const var3007 Int (bv2nat (bvand ((_ int2bv 64) var3390) ((_ int2bv 64) 255)))) ; Statement: s29 = $s38 & 255 
(define-const var2198 Int (cast-from-Int-to-Int var3007)) ; Statement: $i39 = (int) s29 
(assert true)
;(assert (typeArgumentTarget/1059638426 var532 var3493 var676 var942 var2198)) ; Statement: virtualinvoke r0.<org.apache.ibatis.javassist.bytecode.TypeAnnotationsAttribute$SubWalker: void typeArgumentTarget(int,int,int,int)>(i1, i0, i28, $i39) 

(declare-const var532!1 var1519)
(declare-const var3493!1 Int)
(declare-const var676!1 Int)
(declare-const var942!1 Int)
(declare-const var2198!1 Int)
(define-const var2960 Int (+ var3493!1 3)) ; Statement: $i4 = i1 + 3 
 ; Statement: return $i4 
(check-sat)
(get-model)
(get-unsat-core)
; {info/-778566539=([org.apache.ibatis.javassist.bytecode.TypeAnnotationsAttribute$SubWalker], byte[]), var188_readU16bit/-514445618=([byte[], int], int), cast-from-Int-to-Int=([byte], short), typeArgumentTarget/1059638426=([org.apache.ibatis.javassist.bytecode.TypeAnnotationsAttribute$SubWalker, int, int, int, int], void)}
; {var1519=org.apache.ibatis.javassist.bytecode.TypeAnnotationsAttribute$SubWalker, var532=r0, var3493=i1, var676=i0, var3384=$r1, var188=org.apache.ibatis.javassist.bytecode.ByteArray, var942=i28, var3595=$r2, var3843=$i2, var2690=$b3, var3390=$s38, var3007=s29, var2198=$i39, var2960=$i4}
; {org.apache.ibatis.javassist.bytecode.TypeAnnotationsAttribute$SubWalker=var1519, r0=var532, i1=var3493, i0=var676, $r1=var3384, org.apache.ibatis.javassist.bytecode.ByteArray=var188, i28=var942, $r2=var3595, $i2=var3843, $b3=var2690, $s38=var3390, s29=var3007, $i39=var2198, $i4=var2960}
;seq 
;cnt {}
;stmts r0 := @this: org.apache.ibatis.javassist.bytecode.TypeAnnotationsAttribute$SubWalker;	i1 := @parameter0: int;	i0 := @parameter1: int;	tableswitch(i0) {     case 0: goto $r11 = r0.<org.apache.ibatis.javassist.bytecode.TypeAnnotationsAttribute$SubWalker: byte[] info>;     case 1: goto $r11 = r0.<org.apache.ibatis.javassist.bytecode.TypeAnnotationsAttribute$SubWalker: byte[] info>;     case 2: goto $r18 = new java.lang.RuntimeException;     case 3: goto $r18 = new java.lang.RuntimeException;     case 4: goto $r18 = new java.lang.RuntimeException;     case 5: goto $r18 = new java.lang.RuntimeException;     case 6: goto $r18 = new java.lang.RuntimeException;     case 7: goto $r18 = new java.lang.RuntimeException;     case 8: goto $r18 = new java.lang.RuntimeException;     case 9: goto $r18 = new java.lang.RuntimeException;     case 10: goto $r18 = new java.lang.RuntimeException;     case 11: goto $r18 = new java.lang.RuntimeException;     case 12: goto $r18 = new java.lang.RuntimeException;     case 13: goto $r18 = new java.lang.RuntimeException;     case 14: goto $r18 = new java.lang.RuntimeException;     case 15: goto $r18 = new java.lang.RuntimeException;     case 16: goto $r10 = r0.<org.apache.ibatis.javassist.bytecode.TypeAnnotationsAttribute$SubWalker: byte[] info>;     case 17: goto $r8 = r0.<org.apache.ibatis.javassist.bytecode.TypeAnnotationsAttribute$SubWalker: byte[] info>;     case 18: goto $r8 = r0.<org.apache.ibatis.javassist.bytecode.TypeAnnotationsAttribute$SubWalker: byte[] info>;     case 19: goto virtualinvoke r0.<org.apache.ibatis.javassist.bytecode.TypeAnnotationsAttribute$SubWalker: void emptyTarget(int,int)>(i1, i0);     case 20: goto virtualinvoke r0.<org.apache.ibatis.javassist.bytecode.TypeAnnotationsAttribute$SubWalker: void emptyTarget(int,int)>(i1, i0);     case 21: goto virtualinvoke r0.<org.apache.ibatis.javassist.bytecode.TypeAnnotationsAttribute$SubWalker: void emptyTarget(int,int)>(i1, i0);     case 22: goto $r7 = r0.<org.apache.ibatis.javassist.bytecode.TypeAnnotationsAttribute$SubWalker: byte[] info>;     case 23: goto $r6 = r0.<org.apache.ibatis.javassist.bytecode.TypeAnnotationsAttribute$SubWalker: byte[] info>;     case 24: goto $r18 = new java.lang.RuntimeException;     case 25: goto $r18 = new java.lang.RuntimeException;     case 26: goto $r18 = new java.lang.RuntimeException;     case 27: goto $r18 = new java.lang.RuntimeException;     case 28: goto $r18 = new java.lang.RuntimeException;     case 29: goto $r18 = new java.lang.RuntimeException;     case 30: goto $r18 = new java.lang.RuntimeException;     case 31: goto $r18 = new java.lang.RuntimeException;     case 32: goto $r18 = new java.lang.RuntimeException;     case 33: goto $r18 = new java.lang.RuntimeException;     case 34: goto $r18 = new java.lang.RuntimeException;     case 35: goto $r18 = new java.lang.RuntimeException;     case 36: goto $r18 = new java.lang.RuntimeException;     case 37: goto $r18 = new java.lang.RuntimeException;     case 38: goto $r18 = new java.lang.RuntimeException;     case 39: goto $r18 = new java.lang.RuntimeException;     case 40: goto $r18 = new java.lang.RuntimeException;     case 41: goto $r18 = new java.lang.RuntimeException;     case 42: goto $r18 = new java.lang.RuntimeException;     case 43: goto $r18 = new java.lang.RuntimeException;     case 44: goto $r18 = new java.lang.RuntimeException;     case 45: goto $r18 = new java.lang.RuntimeException;     case 46: goto $r18 = new java.lang.RuntimeException;     case 47: goto $r18 = new java.lang.RuntimeException;     case 48: goto $r18 = new java.lang.RuntimeException;     case 49: goto $r18 = new java.lang.RuntimeException;     case 50: goto $r18 = new java.lang.RuntimeException;     case 51: goto $r18 = new java.lang.RuntimeException;     case 52: goto $r18 = new java.lang.RuntimeException;     case 53: goto $r18 = new java.lang.RuntimeException;     case 54: goto $r18 = new java.lang.RuntimeException;     case 55: goto $r18 = new java.lang.RuntimeException;     case 56: goto $r18 = new java.lang.RuntimeException;     case 57: goto $r18 = new java.lang.RuntimeException;     case 58: goto $r18 = new java.lang.RuntimeException;     case 59: goto $r18 = new java.lang.RuntimeException;     case 60: goto $r18 = new java.lang.RuntimeException;     case 61: goto $r18 = new java.lang.RuntimeException;     case 62: goto $r18 = new java.lang.RuntimeException;     case 63: goto $r18 = new java.lang.RuntimeException;     case 64: goto $r5 = r0.<org.apache.ibatis.javassist.bytecode.TypeAnnotationsAttribute$SubWalker: byte[] info>;     case 65: goto $r5 = r0.<org.apache.ibatis.javassist.bytecode.TypeAnnotationsAttribute$SubWalker: byte[] info>;     case 66: goto $r4 = r0.<org.apache.ibatis.javassist.bytecode.TypeAnnotationsAttribute$SubWalker: byte[] info>;     case 67: goto $r3 = r0.<org.apache.ibatis.javassist.bytecode.TypeAnnotationsAttribute$SubWalker: byte[] info>;     case 68: goto $r3 = r0.<org.apache.ibatis.javassist.bytecode.TypeAnnotationsAttribute$SubWalker: byte[] info>;     case 69: goto $r3 = r0.<org.apache.ibatis.javassist.bytecode.TypeAnnotationsAttribute$SubWalker: byte[] info>;     case 70: goto $r3 = r0.<org.apache.ibatis.javassist.bytecode.TypeAnnotationsAttribute$SubWalker: byte[] info>;     case 71: goto $r1 = r0.<org.apache.ibatis.javassist.bytecode.TypeAnnotationsAttribute$SubWalker: byte[] info>;     case 72: goto $r1 = r0.<org.apache.ibatis.javassist.bytecode.TypeAnnotationsAttribute$SubWalker: byte[] info>;     case 73: goto $r1 = r0.<org.apache.ibatis.javassist.bytecode.TypeAnnotationsAttribute$SubWalker: byte[] info>;     case 74: goto $r1 = r0.<org.apache.ibatis.javassist.bytecode.TypeAnnotationsAttribute$SubWalker: byte[] info>;     case 75: goto $r1 = r0.<org.apache.ibatis.javassist.bytecode.TypeAnnotationsAttribute$SubWalker: byte[] info>;     default: goto $r18 = new java.lang.RuntimeException; };	$r1 = r0.<org.apache.ibatis.javassist.bytecode.TypeAnnotationsAttribute$SubWalker: byte[] info>;	i28 = staticinvoke <org.apache.ibatis.javassist.bytecode.ByteArray: int readU16bit(byte[],int)>($r1, i1);	$r2 = r0.<org.apache.ibatis.javassist.bytecode.TypeAnnotationsAttribute$SubWalker: byte[] info>;	$i2 = i1 + 2;	$b3 = $r2[$i2];	$s38 = (short) $b3;	s29 = $s38 & 255;	$i39 = (int) s29;	virtualinvoke r0.<org.apache.ibatis.javassist.bytecode.TypeAnnotationsAttribute$SubWalker: void typeArgumentTarget(int,int,int,int)>(i1, i0, i28, $i39);	$i4 = i1 + 3;	return $i4
;block_num 2